NAME : n60w60.005.669.tour
COMMENT : Length = 669
COMMENT : Found by LKH [Keld Helsgaun] Tue Nov  7 19:35:18 2017
TYPE : TOUR
DIMENSION : 61
TOUR_SECTION
1
30
8
13
27
11
46
3
35
49
36
51
39
58
25
7
40
4
19
28
54
24
21
26
47
38
23
57
37
9
32
18
12
42
6
14
10
41
16
34
33
55
53
15
59
50
44
45
22
48
31
2
60
20
5
52
29
56
17
61
43
-1
EOF
